n_res = 4;
rc = [ 19, 20, 19, 18 ];
n_tasks = 60;
d = [ 4, 5, 5, 3, 8, 3, 7, 4, 4, 5, 4, 3, 7, 1, 3, 5, 10, 4, 3, 8, 6, 1, 9, 8, 3, 4, 5, 7, 10, 6, 10, 8, 8, 5, 3, 7, 4, 4, 2, 7, 1, 10, 6, 4, 6, 3, 6, 1, 5, 3, 6, 4, 6, 8, 2, 10, 2, 8, 3, 3 ];
rr = [| 8, 2, 7, 8, 3, 8, 5, 2, 9, 8, 1, 6, 4, 7, 8, 3, 2, 2, 9, 4, 4, 3, 5, 3, 5, 4, 9, 4, 10, 2, 3, 7, 10, 1, 6, 7, 6, 1, 6, 7, 8, 1, 5, 5, 10, 2, 3, 9, 4, 1, 10, 6, 10, 3, 1, 3, 3, 9, 3, 2
      | 3, 9, 8, 9, 8, 5, 8, 5, 8, 6, 5, 7, 5, 1, 4, 9, 8, 10, 3, 6, 9, 1, 8, 2, 2, 5, 6, 8, 3, 9, 4, 5, 1, 4, 2, 9, 3, 4, 7, 4, 4, 7, 5, 7, 3, 5, 8, 5, 10, 1, 7, 9, 2, 8, 3, 6, 1, 9, 8, 8
      | 9, 1, 10, 5, 5, 4, 3, 3, 7, 4, 5, 7, 9, 3, 7, 3, 1, 6, 3, 4, 5, 5, 7, 10, 4, 3, 7, 9, 3, 1, 9, 5, 6, 9, 10, 5, 3, 1, 1, 2, 8, 5, 2, 9, 6, 9, 6, 6, 5, 4, 8, 6, 3, 2, 6, 1, 10, 3, 7, 2
      | 10, 2, 5, 2, 4, 9, 3, 6, 6, 7, 2, 6, 9, 4, 2, 3, 1, 4, 8, 4, 3, 5, 4, 10, 10, 1, 4, 10, 3, 7, 9, 4, 3, 1, 4, 6, 9, 6, 8, 8, 4, 6, 6, 7, 8, 4, 6, 3, 1, 4, 6, 7, 7, 9, 8, 5, 6, 4, 4, 5 |];
suc = [ { 4, 5, 8 },
       { 14, 27, 56 },
       { 6, 7, 25 },
       { 10, 13, 17 },
       { 15, 16, 52 },
       { 28, 34, 39 },
       { 9, 12, 29 },
       { 16, 34, 43 },
       { 27, 39, 48 },
       { 11, 18, 50 },
       { 19, 20, 26 },
       { 21, 24, 56 },
       { 18, 25, 31 },
       { 30, 35, 40 },
       { 33, 45 },
       { 17, 26, 41 },
       { 58 },
       { 22, 27, 34 },
       { 24, 37, 49 },
       { 24, 29 },
       { 26, 32, 49 },
       { 23, 29, 37 },
       { 33, 38, 42 },
       { 40, 44, 60 },
       { 32, 35, 37 },
       { 59 },
       { 33, 44, 49 },
       { 30, 35, 41 },
       { 53, 57 },
       { 38, 45 },
       { 38, 56 },
       { 36, 44, 48 },
       { 55 },
       { 46 },
       { 36, 45 },
       { 43, 46 },
       { 39, 40, 51 },
       { 52 },
       { 54, 57 },
       { 42, 43 },
       { 42, 50 },
       { 47 },
       { 58 },
       { 46, 47 },
       { 47, 48, 53 },
       { 51, 52 },
       { 55 },
       { 50 },
       { 54, 57 },
       { 51, 54 },
       { 59 },
       { 53 },
       { 55 },
       { 60 },
       { 59 },
       { 60 },
       { 58 },
       {  },
       {  },
       {  } ];
